p cnf 233 184
-167 -395 -412 -623 -632 -668 -709 -747 -1088 -1106 -1109 -1143 -1144 -1162 -1163 -1220 -1223 -1295 0
-1296 0
-205 -395 -412 -623 -632 -668 -709 -747 -1088 -1106 -1109 -1143 -1144 -1162 -1163 -1220 -1223 -1295 0
-412 -623 -632 -668 -671 -693 -747 -774 -781 -794 -795 -1088 -1106 -1109 -1143 -1144 -1162 -1163 -1220 -1223 -1295 0
-84 -623 -632 -668 -671 -693 -747 -774 -781 -794 -795 -1088 -1106 -1109 -1143 -1144 -1162 -1163 -1220 -1223 -1295 0
-70 -167 -395 -623 -632 -668 -671 -747 -1088 -1106 -1109 -1143 -1144 -1162 -1163 -1220 -1223 -1295 0
-70 -205 -395 -623 -632 -668 -671 -747 -1088 -1106 -1109 -1143 -1144 -1162 -1163 -1220 -1223 -1295 0
-70 -623 -632 -668 -671 -693 -747 -774 -781 -794 -795 -1088 -1106 -1109 -1143 -1144 -1162 -1163 -1220 -1223 -1295 0
-200 -226 -262 -286 -292 -294 -308 -310 -312 -334 -406 -408 -422 -424 -426 -432 -623 -632 -668 -671 -693 -747 -774 -781 -794 -795 -1088 -1106 -1109 -1143 -1144 -1162 -1163 -1220 -1223 -1295 0
-167 -200 -226 -262 -292 -308 -310 -312 -334 -406 -422 -424 -426 -446 -476 -558 -578 -623 -632 -668 -671 -693 -747 -774 -1088 -1106 -1109 -1143 -1144 -1162 -1163 -1220 -1223 -1295 0
-200 -205 -226 -262 -292 -308 -310 -312 -334 -406 -422 -424 -426 -446 -476 -558 -578 -623 -632 -668 -671 -693 -747 -774 -1088 -1106 -1109 -1143 -1144 -1162 -1163 -1220 -1223 -1295 0
-200 -226 -262 -292 -308 -310 -312 -334 -406 -422 -424 -426 -446 -476 -558 -578 -623 -632 -668 -671 -693 -747 -774 -781 -794 -795 -1088 -1106 -1109 -1143 -1144 -1162 -1163 -1220 -1223 -1295 0
-200 -226 -262 -286 -292 -294 -308 -310 -312 -334 -406 -408 -422 -424 -426 -584 -623 -632 -668 -671 -693 -747 -774 -781 -794 -795 -1088 -1106 -1109 -1143 -1144 -1162 -1163 -1220 -1223 -1295 0
-167 -200 -226 -262 -292 -308 -310 -312 -334 -422 -424 -426 -446 -476 -632 -668 -671 -747 -879 -895 -1088 -1111 -1139 -1150 -1176 -1231 -1236 -1287 -1293 -1295 -1306 0
-200 -205 -226 -262 -292 -308 -310 -312 -334 -422 -424 -426 -446 -476 -632 -668 -671 -747 -879 -895 -1088 -1111 -1139 -1150 -1176 -1231 -1236 -1287 -1293 -1295 -1306 0
-200 -226 -262 -292 -308 -310 -312 -334 -422 -424 -426 -446 -476 -632 -668 -671 -747 -774 -794 -795 -879 -895 -1088 -1111 -1139 -1150 -1176 -1231 -1236 -1287 -1293 -1295 -1306 0
-200 -292 -334 -406 -446 -476 -558 -623 -632 -668 -747 -1088 -1111 -1144 -1163 -1220 -1333 -1372 0
-200 -292 -334 -406 -446 -476 -558 -632 -668 -747 -1088 -1111 -1144 -1163 -1220 -1333 -1375 0
-200 -226 -308 -312 -334 -406 -422 -426 -446 -476 -536 -558 -623 -632 -668 -747 -879 -1088 -1111 -1150 -1176 -1231 -1333 -1486 0
-114 -116 -167 -200 -226 -262 -292 -308 -312 -334 -422 -426 -446 -476 -536 -558 -623 -632 -668 -671 -747 -863 -879 -1088 -1111 -1139 -1150 -1176 -1189 -1231 -1236 -1293 -1333 -1437 -1457 -1472 -1473 -1474 -1489 -1491 -1492 -1499 0
-114 -116 -200 -205 -226 -262 -292 -308 -312 -334 -422 -426 -446 -476 -536 -558 -623 -632 -668 -671 -747 -863 -879 -1088 -1111 -1139 -1150 -1176 -1189 -1231 -1236 -1293 -1333 -1437 -1457 -1472 -1473 -1474 -1489 -1491 -1492 -1499 0
-114 -116 -200 -226 -262 -292 -308 -312 -334 -406 -422 -426 -446 -476 -536 -558 -632 -668 -747 -863 -879 -895 -1088 -1111 -1139 -1150 -1176 -1189 -1231 -1236 -1293 -1333 -1437 -1457 -1472 -1473 -1474 -1489 -1491 -1492 -1499 0
-200 -226 -292 -308 -312 -334 -422 -426 -446 -476 -536 -558 -623 -632 -668 -671 -747 -879 -934 -1088 -1111 -1139 -1150 -1176 -1231 -1236 -1293 -1333 -1562 -1581 -1657 0
-167 -668 -671 -747 -879 -895 -1088 -1111 -1150 -1176 -1231 -1333 -1670 0
-668 -671 -693 -747 -879 -895 -1088 -1111 -1150 -1176 -1231 -1333 -1670 0
-226 -334 -422 -536 -623 -668 -671 -747 -879 -1088 -1111 -1139 -1150 -1176 -1231 -1236 -1293 -1333 -1838 0
-28 -31 -116 -167 -200 -226 -292 -312 -334 -422 -426 -446 -536 -623 -668 -671 -747 -879 -925 -965 -1088 -1111 -1139 -1150 -1176 -1189 -1231 -1333 -1549 -1737 -1758 -1774 -1798 -1799 -1836 -1843 0
-28 -31 -116 -200 -226 -292 -294 -312 -334 -406 -422 -426 -536 -623 -668 -671 -747 -879 -925 -1088 -1111 -1139 -1150 -1176 -1189 -1231 -1236 -1293 -1333 -1549 -1737 -1758 -1774 -1798 -1799 -1836 -1843 0
-200 -226 -292 -308 -312 -334 -406 -422 -426 -446 -476 -536 -558 -632 -668 -747 -774 -879 -895 -1088 -1111 -1150 -1176 -1231 -1236 -1287 -1293 -1333 -1711 -1737 -1933 0
-167 -226 -334 -422 -536 -623 -668 -671 -747 -879 -925 -1088 -1111 -1139 -1150 -1176 -1231 -1236 -1293 -1333 -1737 -1758 -1774 -1798 -1799 -1836 -1938 0
-205 -226 -334 -422 -536 -623 -668 -671 -747 -879 -925 -1088 -1111 -1139 -1150 -1176 -1231 -1236 -1293 -1333 -1737 -1758 -1774 -1798 -1799 -1836 -1938 0
-200 -205 -226 -262 -292 -308 -310 -312 -334 -422 -426 -446 -476 -558 -623 -632 -747 -879 -895 -925 -934 -965 -1088 -1111 -1150 -1176 -1231 -1287 -1333 -1711 -1999 -2000 -2018 -2019 -2028 0
-200 -226 -262 -292 -294 -308 -310 -312 -334 -422 -426 -476 -668 -671 -747 -879 -895 -925 -965 -1088 -1111 -1150 -1176 -1231 -1287 -1333 -1711 -2030 0
-167 -200 -226 -262 -292 -294 -308 -310 -312 -334 -422 -426 -476 -668 -671 -747 -879 -895 -925 -965 -1088 -1111 -1150 -1176 -1231 -1287 -1333 -1711 -1999 -2000 -2018 -2019 -2066 0
-200 -205 -226 -262 -292 -294 -308 -310 -312 -334 -422 -426 -476 -668 -671 -747 -879 -895 -925 -965 -1088 -1111 -1150 -1176 -1231 -1287 -1333 -1711 -1999 -2000 -2018 -2019 -2066 0
-200 -205 -226 -262 -292 -294 -308 -310 -312 -334 -422 -426 -476 -623 -668 -671 -747 -879 -895 -925 -1088 -1111 -1150 -1176 -1231 -1236 -1287 -1293 -1333 -1711 -1999 -2000 -2018 -2019 -2068 -2069 0
-200 -226 -262 -292 -294 -308 -310 -312 -334 -422 -426 -476 -623 -668 -671 -747 -879 -895 -925 -1088 -1111 -1150 -1176 -1231 -1236 -1287 -1293 -1333 -1711 -1999 -2000 -2018 -2019 -2068 -2258 0
-200 -226 -262 -292 -294 -308 -310 -312 -334 -422 -426 -476 -671 -747 -879 -895 -925 -965 -1088 -1111 -1150 -1176 -1231 -1287 -1333 -1711 -1999 -2000 -2018 -2019 -2068 -2259 0
-200 -226 -262 -292 -308 -310 -312 -334 -406 -422 -426 -446 -476 -558 -623 -632 -668 -747 -879 -925 -1088 -1111 -1150 -1176 -1231 -1333 -1999 -2000 -2283 -2284 -2285 0
-200 -226 -262 -292 -294 -308 -310 -312 -334 -422 -426 -623 -671 -693 -747 -879 -925 -1088 -1111 -1150 -1176 -1231 -1333 -2297 0
-200 -226 -237 -312 -334 -422 -426 -446 -538 -623 -632 -671 -693 -747 -879 -1088 -1111 -1176 -1231 -1333 -2302 0
-167 -200 -226 -292 -308 -312 -334 -422 -426 -446 -476 -538 -558 -623 -632 -747 -879 -1088 -1111 -1150 -1176 -1231 -1293 -1333 -1711 -1999 -2000 -2018 -2019 -2068 -2276 -2300 -2313 -2315 0
-200 -205 -226 -292 -294 -308 -312 -334 -422 -426 -476 -538 -623 -693 -747 -879 -895 -1088 -1111 -1150 -1176 -1231 -1293 -1333 -1711 -1999 -2000 -2018 -2019 -2068 -2276 -2300 -2313 -2315 0
-200 -205 -226 -292 -294 -308 -312 -334 -422 -426 -476 -538 -623 -693 -747 -879 -895 -1088 -1111 -1150 -1176 -1231 -1293 -1333 -1711 -1999 -2000 -2018 -2019 -2068 -2276 -2410 0
-167 -200 -226 -292 -294 -308 -312 -334 -422 -426 -476 -538 -623 -671 -693 -747 -879 -1088 -1111 -1150 -1176 -1231 -1293 -1333 -1711 -1999 -2000 -2018 -2019 -2068 -2276 -2411 0
-200 -205 -226 -292 -294 -308 -312 -334 -422 -426 -476 -538 -623 -671 -693 -747 -879 -1088 -1111 -1150 -1176 -1231 -1293 -1333 -1711 -1999 -2000 -2018 -2019 -2068 -2276 -2411 0
-200 -226 -292 -294 -308 -312 -334 -406 -422 -426 -538 -623 -693 -747 -879 -1088 -1111 -1150 -1176 -1231 -1333 -2276 -2283 -2492 0
-200 -226 -292 -308 -312 -334 -406 -422 -426 -446 -538 -623 -747 -879 -1088 -1111 -1150 -1176 -1231 -1333 -2276 -2283 -2494 0
-167 -200 -226 -292 -308 -312 -422 -426 -446 -476 -538 -558 -623 -632 -747 -1088 -1111 -1150 -1176 -1231 -1333 -1999 -2000 -2018 -2019 -2151 -2276 -2283 -2284 -2511 -2512 0
-200 -205 -226 -292 -308 -312 -422 -426 -446 -476 -538 -558 -623 -632 -747 -1088 -1111 -1150 -1176 -1231 -1333 -1999 -2000 -2018 -2019 -2151 -2276 -2283 -2284 -2511 -2512 0
-200 -226 -292 -308 -312 -334 -406 -422 -426 -538 -623 -747 -879 -1088 -1111 -1150 -1176 -1231 -1333 -1999 -2000 -2018 -2276 -2283 -2513 0
-167 -200 -226 -292 -294 -308 -312 -334 -422 -426 -538 -623 -747 -879 -1088 -1111 -1150 -1176 -1231 -1333 -2276 -2283 -2511 -2530 0
-200 -205 -226 -292 -308 -312 -334 -422 -426 -446 -538 -623 -747 -879 -1088 -1111 -1150 -1176 -1231 -1333 -2276 -2283 -2511 -2530 0
-200 -205 -226 -308 -312 -334 -422 -426 -446 -538 -623 -668 -671 -747 -879 -1088 -1111 -1176 -1231 -1333 -2276 -2283 -2511 -2531 0
-200 -226 -292 -308 -312 -334 -422 -426 -446 -476 -538 -623 -671 -747 -879 -1088 -1111 -1150 -1176 -1231 -1333 -1711 -1999 -2000 -2018 -2019 -2256 -2276 -2300 -2674 0
-200 -226 -292 -294 -308 -312 -334 -422 -426 -476 -538 -623 -671 -693 -747 -879 -1088 -1111 -1150 -1176 -1231 -1333 -1711 -1999 -2000 -2018 -2019 -2256 -2276 -2300 -2676 0
-167 -200 -226 -292 -308 -312 -334 -422 -426 -446 -538 -623 -747 -879 -1088 -1111 -1150 -1176 -1231 -1333 -2276 -2283 -2720 0
-200 -205 -226 -308 -312 -334 -422 -426 -446 -538 -623 -668 -747 -879 -1088 -1111 -1176 -1231 -1333 -2276 -2283 -2720 0
-200 -226 -292 -308 -312 -334 -406 -422 -426 -446 -476 -538 -558 -623 -632 -671 -747 -879 -1088 -1111 -1150 -1176 -1231 -1711 -1999 -2000 -2018 -2019 -2151 -2276 -2283 -2722 0
-167 -200 -226 -292 -294 -308 -312 -334 -422 -426 -476 -538 -623 -632 -668 -747 -879 -1088 -1111 -1150 -1176 -1231 -1293 -1333 -1711 -1774 -1999 -2000 -2018 -2019 -2276 -2300 -2313 -2750 -2978 0
-200 -205 -226 -292 -294 -308 -312 -334 -422 -426 -476 -538 -623 -632 -668 -747 -879 -1088 -1111 -1150 -1176 -1231 -1293 -1333 -1711 -1774 -1999 -2000 -2018 -2019 -2276 -2300 -2313 -2750 -2978 0
-200 -226 -308 -312 -334 -406 -422 -426 -538 -623 -693 -747 -879 -1088 -1111 -1150 -1176 -1231 -1293 -1333 -1711 -1999 -2000 -2018 -2019 -2276 -2300 -2313 -2980 0
-200 -226 -292 -294 -312 -334 -422 -426 -538 -623 -747 -879 -934 -1088 -1111 -1150 -1176 -1231 -1333 -1711 -3022 0
-167 -200 -226 -292 -294 -308 -312 -334 -422 -426 -538 -623 -747 -879 -1088 -1111 -1176 -1231 -1333 -2276 -2283 -2511 -3025 0
-200 -205 -226 -292 -294 -308 -312 -334 -422 -426 -538 -623 -747 -879 -1088 -1111 -1176 -1231 -1333 -2276 -2283 -2511 -3025 0
-200 -226 -292 -294 -308 -312 -334 -406 -408 -422 -426 -476 -538 -623 -671 -747 -879 -1088 -1111 -1150 -1176 -1231 -1266 -1293 -1333 -1711 -2300 -3060 0
-200 -226 -292 -308 -312 -334 -406 -422 -426 -446 -476 -538 -671 -747 -879 -1088 -1111 -1150 -1176 -1231 -1333 -1711 -2300 -3076 0
-28 -52 -116 -200 -226 -292 -308 -312 -334 -406 -422 -426 -446 -476 -538 -558 -632 -668 -693 -747 -828 -848 -863 -879 -979 -1016 -1088 -1111 -1139 -1150 -1176 -1231 -1319 -1333 -1437 -1457 -1474 -1509 -1549 -1737 -1758 -1774 -1893 -2084 -2118 -2136 -2177 -2214 -2387 -2415 -2555 -2586 -2614 -2616 -2806 -2822 -2897 -2952 -2994 -3086 0
-28 -52 -116 -200 -226 -292 -308 -312 -334 -406 -422 -426 -446 -476 -538 -558 -632 -668 -693 -747 -828 -848 -863 -879 -979 -1016 -1088 -1111 -1139 -1150 -1176 -1231 -1319 -1333 -1457 -1474 -1509 -1549 -1737 -1758 -1774 -1893 -2084 -2118 -2136 -2177 -2214 -2387 -2415 -2555 -2586 -2614 -2616 -2806 -2822 -2897 -2952 -2994 -3090 0
-28 -52 -116 -200 -226 -292 -308 -312 -334 -406 -422 -426 -446 -476 -538 -558 -632 -668 -693 -747 -828 -848 -863 -879 -979 -1016 -1088 -1111 -1139 -1150 -1176 -1231 -1319 -1333 -1437 -1457 -1474 -1549 -1737 -1758 -1774 -1893 -2084 -2118 -2177 -2214 -2387 -2415 -2555 -2586 -2614 -2616 -2806 -2822 -2897 -2952 -2994 -3105 0
-28 -52 -200 -226 -292 -308 -312 -334 -406 -422 -426 -446 -538 -558 -623 -632 -668 -747 -828 -848 -863 -879 -979 -1016 -1088 -1111 -1139 -1144 -1176 -1231 -1319 -1333 -1437 -1457 -1474 -1549 -1711 -1737 -1758 -1774 -1799 -1893 -2084 -2118 -2177 -2214 -2276 -2387 -2415 -2555 -2586 -2614 -2616 -2806 -2822 -2897 -2952 -2994 -3050 -3109 0
-28 -52 -116 -167 -200 -226 -292 -308 -312 -334 -422 -426 -446 -476 -538 -558 -623 -632 -668 -747 -828 -848 -863 -879 -979 -1016 -1088 -1111 -1139 -1144 -1176 -1231 -1236 -1266 -1319 -1333 -1437 -1457 -1474 -1509 -1549 -1737 -1758 -1774 -1893 -1999 -2000 -2018 -2019 -2084 -2118 -2136 -2177 -2214 -2387 -2415 -2555 -2586 -2614 -2616 -2806 -2811 -2822 -2897 -2952 -2994 -3050 -3143 0
-28 -52 -200 -205 -226 -292 -308 -312 -334 -422 -426 -446 -476 -538 -558 -623 -632 -668 -747 -828 -848 -863 -879 -979 -1016 -1088 -1111 -1139 -1144 -1176 -1231 -1236 -1266 -1319 -1333 -1437 -1457 -1474 -1509 -1549 -1737 -1758 -1774 -1799 -1893 -1999 -2000 -2018 -2019 -2084 -2118 -2136 -2177 -2214 -2387 -2415 -2555 -2586 -2614 -2806 -2811 -2822 -2897 -2952 -2994 -3050 -3143 0
-28 -52 -200 -205 -226 -292 -308 -312 -334 -422 -426 -446 -476 -538 -558 -623 -632 -668 -747 -828 -848 -863 -879 -979 -1016 -1088 -1111 -1139 -1144 -1176 -1231 -1236 -1266 -1319 -1333 -1437 -1457 -1474 -1509 -1549 -1737 -1758 -1774 -1893 -1999 -2000 -2018 -2019 -2084 -2118 -2136 -2177 -2214 -2387 -2415 -2555 -2586 -2614 -2616 -2806 -2811 -2822 -2897 -2952 -2994 -3050 -3146 0
-167 -200 -226 -292 -308 -312 -334 -422 -426 -446 -476 -623 -632 -747 -795 -879 -895 -934 -965 -1088 -1111 -1150 -1176 -1231 -1287 -1333 -1457 -1562 -1573 -1737 -1893 -1999 -2000 -2018 -2019 -2586 -3158 0
-200 -205 -226 -292 -308 -312 -334 -422 -426 -446 -476 -538 -623 -632 -747 -795 -879 -895 -934 -965 -1088 -1111 -1150 -1176 -1231 -1287 -1333 -1457 -1562 -1573 -1737 -1999 -2000 -2018 -2019 -2586 -3158 0
-446 -623 -668 -671 -693 -747 -934 -1088 -1111 -1150 -1176 -1231 -1333 -3160 0
-200 -226 -292 -308 -312 -334 -406 -422 -426 -446 -476 -538 -747 -795 -879 -895 -934 -965 -1088 -1111 -1150 -1176 -1231 -1287 -1333 -1457 -1562 -1573 -1737 -2586 -3253 0
-167 -200 -226 -292 -308 -312 -334 -422 -426 -446 -476 -538 -623 -632 -747 -795 -879 -895 -934 -965 -1088 -1111 -1150 -1176 -1231 -1287 -1333 -1457 -1573 -1580 -1581 -1737 -1999 -2000 -2018 -2019 -2586 -3255 0
-200 -205 -226 -292 -308 -312 -334 -422 -426 -446 -476 -538 -623 -632 -747 -795 -879 -895 -934 -965 -1088 -1111 -1150 -1176 -1231 -1287 -1333 -1457 -1573 -1580 -1581 -1737 -1999 -2000 -2018 -2019 -2586 -3255 0
-28 -52 -200 -205 -226 -292 -308 -312 -334 -422 -426 -446 -476 -538 -623 -632 -747 -828 -848 -863 -879 -895 -934 -965 -979 -1016 -1088 -1111 -1139 -1150 -1176 -1231 -1266 -1319 -1333 -1437 -1457 -1474 -1549 -1573 -1580 -1737 -1758 -1774 -1799 -1893 -1999 -2000 -2019 -2084 -2118 -2177 -2214 -2284 -2387 -2415 -2555 -2586 -2614 -2616 -2806 -2811 -2822 -2897 -2952 -2994 -3050 -3295 0
-28 -52 -116 -167 -200 -226 -292 -312 -334 -422 -426 -446 -476 -538 -558 -623 -632 -668 -747 -828 -863 -879 -925 -965 -979 -1016 -1088 -1111 -1139 -1144 -1176 -1231 -1266 -1287 -1319 -1333 -1437 -1457 -1474 -1509 -1549 -1711 -1737 -1758 -1774 -1798 -1836 -2118 -2136 -2177 -2214 -2387 -2415 -2555 -2586 -2614 -2616 -2750 -2767 -2806 -2811 -2822 -2897 -2952 -2994 -3050 -3298 0
-28 -52 -116 -200 -205 -226 -292 -312 -334 -422 -426 -446 -476 -538 -558 -623 -632 -668 -747 -828 -848 -863 -879 -965 -979 -1016 -1088 -1111 -1139 -1144 -1176 -1231 -1266 -1287 -1319 -1333 -1437 -1457 -1474 -1509 -1549 -1711 -1737 -1758 -1774 -1798 -1836 -2084 -2118 -2136 -2177 -2214 -2387 -2415 -2555 -2586 -2614 -2616 -2750 -2767 -2806 -2811 -2822 -2897 -2952 -2994 -3050 -3298 0
-28 -52 -200 -205 -226 -292 -308 -312 -334 -422 -426 -446 -476 -538 -558 -623 -632 -668 -747 -828 -863 -879 -925 -965 -979 -1016 -1088 -1111 -1139 -1144 -1176 -1231 -1266 -1319 -1333 -1437 -1457 -1474 -1549 -1711 -1737 -1758 -1774 -1798 -1799 -1999 -2000 -2018 -2019 -2084 -2118 -2136 -2177 -2214 -2256 -2387 -2415 -2555 -2586 -2614 -2616 -2806 -2811 -2822 -2897 -2952 -2994 -3050 -3314 0
-28 -52 -167 -200 -226 -292 -308 -312 -334 -422 -426 -446 -476 -538 -558 -623 -632 -668 -747 -828 -863 -879 -925 -965 -979 -1016 -1088 -1111 -1139 -1144 -1176 -1231 -1266 -1319 -1333 -1437 -1457 -1474 -1549 -1711 -1737 -1758 -1774 -1798 -1799 -1999 -2000 -2018 -2019 -2084 -2118 -2136 -2177 -2214 -2256 -2387 -2415 -2555 -2586 -2614 -2616 -2806 -2811 -2822 -2897 -2952 -2994 -3050 -3324 0
-28 -52 -200 -205 -226 -292 -308 -312 -334 -422 -426 -446 -476 -538 -558 -623 -632 -668 -747 -828 -848 -863 -879 -965 -979 -1016 -1088 -1111 -1139 -1144 -1176 -1231 -1266 -1319 -1333 -1437 -1457 -1474 -1549 -1711 -1737 -1758 -1774 -1798 -1799 -1999 -2000 -2018 -2019 -2084 -2118 -2136 -2177 -2214 -2256 -2387 -2415 -2555 -2586 -2614 -2616 -2806 -2811 -2822 -2897 -2952 -2994 -3050 -3324 0
-28 -52 -116 -200 -205 -226 -292 -312 -334 -422 -426 -446 -476 -538 -623 -668 -747 -828 -848 -879 -925 -1088 -1111 -1139 -1150 -1176 -1189 -1231 -1333 -1457 -1474 -1549 -1737 -1758 -1774 -1798 -1799 -1836 -2136 -2387 -2555 -2586 -2614 -2616 -3334 -3336 0
-28 -52 -167 -226 -334 -422 -538 -623 -668 -747 -828 -879 -925 -934 -1088 -1111 -1139 -1150 -1176 -1189 -1231 -1266 -1333 -1737 -1758 -1774 -1798 -1799 -1836 -3344 0
-28 -52 -205 -226 -334 -422 -538 -623 -668 -747 -828 -879 -925 -934 -1088 -1111 -1139 -1150 -1176 -1189 -1231 -1266 -1333 -1737 -1758 -1774 -1798 -1799 -1836 -3344 0
-200 -205 -226 -292 -308 -312 -334 -422 -426 -446 -476 -538 -623 -693 -747 -879 -895 -1088 -1111 -1150 -1176 -1231 -1287 -1293 -1333 -1711 -1999 -2000 -2018 -2019 -2068 -2276 -3360 0
-200 -226 -292 -294 -308 -312 -334 -422 -426 -538 -623 -693 -747 -879 -895 -1088 -1111 -1150 -1176 -1231 -1333 -1711 -1999 -2000 -2018 -2019 -2276 -3361 0
-623 -668 -671 -747 -925 -1088 -1111 -1150 -1176 -1231 -1333 -1549 -1774 -2952 -3427 0
-623 -668 -671 -747 -925 -1088 -1111 -1150 -1176 -1231 -1333 -1549 -1774 -2952 -3438 0
-200 -226 -292 -308 -312 -334 -406 -422 -426 -446 -476 -536 -558 -623 -632 -668 -747 -879 -965 -1088 -1111 -1150 -1176 -1231 -1266 -1286 -1287 -1319 -1333 -3472 0
-200 -226 -292 -308 -312 -334 -406 -422 -426 -446 -476 -536 -558 -623 -632 -668 -747 -879 -965 -1088 -1111 -1150 -1176 -1231 -1266 -1286 -1287 -1319 -1333 -3475 0
-200 -226 -292 -308 -312 -334 -406 -422 -426 -446 -476 -536 -558 -632 -668 -747 -879 -965 -1088 -1111 -1150 -1176 -1231 -1266 -1286 -1287 -1319 -1333 -3548 0
-200 -226 -292 -308 -312 -334 -406 -422 -426 -446 -536 -558 -623 -632 -747 -774 -794 -795 -879 -895 -1088 -1111 -1144 -1176 -1231 -1287 -1319 -1333 -1711 -3551 0
-476 -747 -1088 -1111 -1139 -1150 -1176 -1231 -1236 -1293 -1333 -3557 0
-275 -446 -538 -668 -689 -693 -747 -934 -1088 -1111 -1150 -1176 -1231 -1333 -3559 0
-28 -52 -200 -226 -292 -308 -312 -334 -406 -422 -426 -446 -476 -538 -632 -689 -693 -747 -828 -848 -863 -879 -895 -934 -965 -979 -1016 -1088 -1111 -1139 -1150 -1176 -1231 -1266 -1319 -1333 -1437 -1457 -1474 -1549 -1573 -1580 -1737 -1758 -1774 -1799 -1893 -2084 -2118 -2177 -2214 -2387 -2415 -2555 -2586 -2614 -2616 -2806 -2811 -2822 -2897 -2952 -2994 -3050 -3580 0
-28 -52 -200 -226 -308 -312 -334 -422 -426 -446 -476 -538 -668 -693 -747 -828 -848 -863 -879 -895 -934 -979 -1016 -1088 -1111 -1139 -1150 -1176 -1231 -1266 -1319 -1333 -1437 -1457 -1474 -1549 -1580 -1711 -1737 -1758 -1774 -1799 -1893 -2084 -2118 -2177 -2214 -2387 -2415 -2555 -2586 -2614 -2616 -2806 -2822 -2897 -2952 -2994 -3050 -3590 0
-200 -226 -292 -308 -312 -334 -406 -422 -426 -446 -476 -558 -623 -632 -747 -774 -1088 -1111 -1144 -1176 -1231 -1333 -1893 -2276 -3624 0
-200 -226 -292 -308 -312 -334 -406 -422 -426 -446 -476 -538 -558 -596 -632 -747 -774 -965 -1088 -1111 -1150 -1176 -1231 -1266 -1286 -1287 -1319 -1333 -2276 -3627 0
-28 -52 -167 -200 -226 -292 -312 -334 -422 -426 -446 -476 -538 -623 -632 -747 -828 -848 -863 -879 -895 -934 -965 -979 -1016 -1088 -1111 -1139 -1150 -1176 -1231 -1333 -1457 -1474 -1549 -1573 -1580 -1737 -1758 -1774 -1799 -1893 -1999 -2000 -2018 -2019 -2084 -2136 -2387 -2555 -2586 -2616 -2767 -2994 -3334 -3697 0
-28 -52 -200 -226 -312 -334 -422 -426 -476 -538 -709 -747 -774 -795 -828 -848 -863 -879 -895 -965 -979 -1016 -1088 -1111 -1139 -1150 -1176 -1231 -1333 -1457 -1474 -1549 -1711 -1737 -1758 -1774 -1799 -1893 -2084 -2136 -2387 -2555 -2586 -2616 -2767 -2994 -3334 -3697 0
-28 -52 -116 -200 -226 -292 -312 -334 -406 -422 -426 -446 -538 -623 -632 -693 -747 -828 -848 -863 -879 -895 -934 -965 -979 -1016 -1088 -1111 -1139 -1150 -1176 -1231 -1266 -1319 -1333 -1437 -1457 -1474 -1509 -1549 -1573 -1580 -1737 -1758 -1774 -1893 -2084 -2118 -2136 -2177 -2387 -2415 -2555 -2586 -2616 -2642 -2767 -2806 -2811 -2822 -2897 -2952 -2994 -3050 -3705 0
-28 -200 -226 -292 -312 -334 -422 -426 -446 -558 -623 -632 -668 -747 -828 -863 -879 -934 -965 -979 -1016 -1088 -1111 -1139 -1144 -1176 -1189 -1231 -1236 -1333 -1549 -1562 -1737 -1758 -1774 -1893 -1999 -2283 -2284 -2387 -2415 -2586 -2642 -2750 -2767 -3050 -3744 0
-28 -200 -226 -292 -312 -334 -422 -426 -446 -558 -623 -632 -668 -747 -828 -863 -879 -934 -965 -979 -1016 -1088 -1111 -1139 -1144 -1176 -1189 -1231 -1236 -1333 -1549 -1562 -1737 -1758 -1774 -1893 -1999 -2283 -2284 -2387 -2415 -2586 -2642 -2750 -2767 -3050 -3751 0
-28 -52 -167 -200 -226 -292 -312 -334 -422 -426 -446 -538 -623 -632 -693 -747 -828 -848 -863 -879 -895 -934 -965 -979 -1016 -1088 -1111 -1139 -1144 -1176 -1231 -1266 -1319 -1333 -1437 -1457 -1549 -1573 -1580 -1737 -1758 -1774 -1799 -1893 -1999 -2084 -2118 -2136 -2177 -2214 -2283 -2284 -2387 -2415 -2586 -2642 -2767 -2806 -2822 -2897 -2994 -3050 -3770 0
-28 -52 -200 -226 -292 -312 -334 -422 -426 -446 -538 -632 -693 -747 -774 -795 -828 -848 -863 -879 -895 -934 -965 -979 -1016 -1088 -1111 -1139 -1144 -1176 -1231 -1266 -1319 -1333 -1437 -1457 -1549 -1711 -1737 -1758 -1774 -1799 -1893 -2084 -2118 -2136 -2177 -2214 -2387 -2415 -2586 -2642 -2767 -2806 -2822 -2897 -2994 -3050 -3770 0
-623 -668 -747 -895 -934 -1016 -1088 -1111 -1150 -1176 -1231 -1333 -1711 -3050 -3776 0
-200 -226 -312 -426 -446 -476 -623 -632 -693 -747 -879 -1088 -1111 -1150 -1176 -1231 -1293 -1333 -1711 -2276 -2300 -2511 -2642 -3877 0
-200 -226 -292 -312 -334 -406 -422 -426 -446 -538 -558 -632 -668 -693 -747 -828 -848 -863 -934 -1016 -1088 -1111 -1139 -1150 -1176 -1231 -1266 -1319 -1333 -1437 -1457 -1474 -1509 -1549 -1562 -1604 -1711 -1737 -1774 -2118 -2214 -2387 -2415 -2555 -2586 -2614 -2616 -2642 -2767 -2806 -2811 -2822 -2897 -2952 -3895 0
-200 -226 -312 -334 -422 -426 -446 -476 -623 -632 -747 -879 -1088 -1111 -1150 -1176 -1231 -1333 -1457 -1711 -1737 -1893 -2276 -2767 -3930 0
-167 -200 -226 -292 -312 -334 -422 -426 -446 -476 -558 -623 -632 -693 -747 -879 -895 -1088 -1111 -1150 -1176 -1231 -1333 -1457 -1711 -1737 -1893 -1999 -2068 -2276 -2283 -2284 -2767 -3931 0
-200 -205 -226 -292 -312 -334 -422 -426 -446 -476 -558 -623 -632 -671 -693 -747 -879 -1088 -1111 -1150 -1176 -1231 -1333 -1457 -1711 -1737 -1893 -1999 -2068 -2276 -2283 -2284 -2767 -3931 0
-446 -538 -623 -668 -693 -747 -934 -1088 -1111 -1150 -1176 -1231 -1333 -3939 0
-200 -226 -292 -308 -312 -334 -406 -422 -426 -446 -476 -538 -558 -623 -632 -693 -747 -774 -879 -895 -1088 -1111 -1150 -1176 -1231 -1287 -1319 -1333 -3947 0
-28 -52 -167 -200 -226 -292 -312 -334 -422 -426 -446 -538 -632 -689 -693 -747 -828 -848 -863 -879 -895 -934 -965 -979 -1016 -1088 -1111 -1139 -1150 -1176 -1231 -1266 -1319 -1333 -1457 -1474 -1509 -1549 -1573 -1580 -1604 -1737 -1758 -1774 -1799 -1893 -1999 -2084 -2118 -2136 -2214 -2283 -2284 -2387 -2415 -2555 -2586 -2642 -2767 -2806 -2822 -2952 -2994 -3334 -3372 -3964 0
-28 -52 -116 -200 -226 -292 -312 -334 -406 -422 -426 -446 -538 -558 -623 -632 -668 -747 -828 -848 -863 -879 -965 -979 -1016 -1088 -1111 -1139 -1144 -1176 -1231 -1266 -1319 -1333 -1457 -1474 -1509 -1549 -1711 -1737 -1758 -1774 -1836 -2084 -2118 -2136 -2177 -2214 -2256 -2387 -2415 -2555 -2586 -2614 -2616 -2642 -2767 -2806 -2822 -2952 -2994 -3050 -3334 -3372 -3964 0
-28 -52 -200 -226 -292 -312 -334 -406 -422 -426 -446 -538 -558 -623 -632 -668 -747 -828 -848 -863 -879 -965 -979 -1016 -1088 -1111 -1139 -1144 -1176 -1231 -1266 -1319 -1333 -1457 -1509 -1549 -1737 -1758 -1774 -1893 -2084 -2118 -2136 -2177 -2214 -2256 -2387 -2415 -2555 -2586 -2616 -2642 -2767 -2806 -2822 -2897 -2952 -2994 -3050 -3971 0
-28 -52 -116 -200 -226 -308 -312 -334 -422 -426 -446 -538 -623 -632 -668 -747 -828 -863 -879 -979 -1016 -1088 -1111 -1139 -1144 -1176 -1231 -1236 -1319 -1333 -1437 -1457 -1474 -1509 -1549 -1737 -1758 -1774 -1893 -2084 -2118 -2136 -2177 -2214 -2276 -2387 -2415 -2555 -2586 -2614 -2616 -2806 -2822 -2897 -2952 -2994 -3050 -3983 0
-28 -52 -116 -167 -200 -226 -292 -308 -312 -334 -422 -426 -446 -476 -538 -558 -623 -632 -668 -747 -828 -848 -863 -879 -979 -1016 -1088 -1111 -1139 -1144 -1176 -1231 -1236 -1266 -1319 -1333 -1437 -1457 -1474 -1509 -1549 -1737 -1758 -1774 -1893 -1999 -2000 -2018 -2019 -2084 -2118 -2136 -2177 -2214 -2387 -2415 -2555 -2586 -2614 -2616 -2806 -2822 -2897 -2952 -2994 -3050 -3989 0
-28 -52 -116 -200 -205 -226 -292 -308 -312 -334 -422 -426 -446 -476 -538 -558 -623 -632 -668 -747 -828 -848 -863 -879 -979 -1016 -1088 -1111 -1139 -1144 -1176 -1231 -1236 -1266 -1319 -1333 -1437 -1457 -1474 -1509 -1549 -1737 -1758 -1774 -1893 -1999 -2000 -2018 -2019 -2084 -2118 -2136 -2177 -2214 -2387 -2415 -2555 -2586 -2614 -2616 -2806 -2822 -2897 -2952 -2994 -3050 -3989 0
-28 -52 -116 -167 -200 -226 -292 -312 -334 -426 -446 -476 -538 -558 -623 -632 -668 -747 -828 -848 -863 -879 -979 -1016 -1088 -1111 -1139 -1144 -1176 -1231 -1236 -1266 -1319 -1333 -1457 -1474 -1509 -1549 -1737 -1758 -1774 -1893 -1999 -2000 -2018 -2019 -2084 -2118 -2136 -2177 -2214 -2387 -2415 -2555 -2586 -2614 -2616 -2767 -2806 -2822 -2897 -2952 -2994 -3050 -3375 -3964 0
-28 -52 -116 -200 -226 -292 -312 -334 -426 -446 -538 -558 -623 -632 -668 -747 -774 -795 -828 -848 -863 -879 -965 -979 -1016 -1088 -1111 -1139 -1144 -1176 -1231 -1266 -1319 -1333 -1457 -1474 -1509 -1549 -1737 -1758 -1774 -1893 -2084 -2118 -2136 -2177 -2214 -2387 -2415 -2555 -2586 -2614 -2616 -2767 -2806 -2822 -2897 -2952 -2994 -3050 -3375 -3964 0
-28 -52 -116 -200 -226 -292 -312 -334 -406 -422 -426 -446 -538 -558 -623 -632 -668 -747 -828 -848 -863 -879 -979 -1016 -1088 -1111 -1139 -1144 -1176 -1231 -1266 -1319 -1333 -1457 -1474 -1509 -1549 -1737 -1758 -1774 -1893 -2084 -2118 -2136 -2177 -2214 -2387 -2415 -2555 -2586 -2614 -2616 -2642 -2767 -2806 -2822 -2952 -2994 -3050 -3410 -3964 0
-28 -52 -116 -167 -200 -226 -292 -312 -334 -422 -426 -446 -476 -538 -558 -623 -632 -668 -747 -828 -848 -863 -879 -979 -1016 -1088 -1111 -1139 -1144 -1176 -1231 -1236 -1266 -1319 -1333 -1457 -1474 -1509 -1549 -1737 -1758 -1774 -1893 -1999 -2000 -2018 -2019 -2084 -2118 -2136 -2177 -2214 -2387 -2415 -2555 -2586 -2614 -2616 -2767 -2806 -2822 -2897 -2952 -2994 -3050 -3413 -3964 0
-28 -52 -116 -200 -226 -292 -312 -334 -406 -422 -426 -446 -476 -538 -558 -623 -632 -668 -747 -828 -848 -863 -879 -979 -1016 -1088 -1111 -1139 -1144 -1176 -1231 -1236 -1266 -1319 -1333 -1457 -1474 -1509 -1549 -1737 -1758 -1774 -1893 -2084 -2118 -2136 -2177 -2214 -2387 -2415 -2555 -2586 -2614 -2616 -2767 -2806 -2822 -2897 -2952 -2994 -3050 -3413 -3964 0
-28 -52 -200 -226 -292 -312 -334 -406 -422 -426 -446 -538 -558 -623 -632 -668 -747 -828 -848 -863 -879 -979 -1016 -1088 -1111 -1139 -1144 -1176 -1231 -1236 -1266 -1333 -1437 -1457 -1509 -1549 -1737 -1758 -1774 -1799 -1893 -2084 -2136 -2177 -2214 -2387 -2415 -2586 -2767 -2806 -2822 -2897 -2952 -2994 -3050 -3866 -3964 0
-28 -52 -116 -167 -200 -226 -292 -312 -334 -422 -426 -446 -476 -538 -558 -623 -632 -668 -747 -828 -863 -879 -979 -1016 -1088 -1111 -1139 -1144 -1176 -1231 -1236 -1266 -1319 -1333 -1437 -1457 -1474 -1509 -1549 -1737 -1758 -1774 -1893 -1999 -2000 -2018 -2019 -2084 -2118 -2136 -2177 -2214 -2387 -2415 -2555 -2586 -2614 -2616 -2767 -2806 -2822 -2897 -2952 -2994 -3050 -3869 -3964 0
-28 -52 -116 -200 -226 -292 -312 -334 -406 -422 -426 -446 -476 -538 -558 -623 -632 -668 -747 -828 -863 -879 -979 -1016 -1088 -1111 -1139 -1144 -1176 -1231 -1236 -1266 -1319 -1333 -1437 -1457 -1474 -1509 -1549 -1737 -1758 -1774 -1893 -2084 -2118 -2136 -2177 -2214 -2387 -2415 -2555 -2586 -2614 -2616 -2767 -2806 -2822 -2897 -2952 -2994 -3050 -3869 -3964 0
-28 -52 -200 -226 -292 -312 -334 -406 -422 -426 -446 -538 -558 -623 -632 -668 -747 -828 -848 -863 -879 -965 -979 -1016 -1088 -1111 -1139 -1144 -1176 -1231 -1266 -1319 -1333 -1437 -1457 -1509 -1549 -1737 -1758 -1774 -1799 -1893 -2084 -2118 -2177 -2214 -2256 -2387 -2415 -2555 -2586 -2616 -2642 -2767 -2806 -2822 -2897 -2952 -2994 -3050 -3961 -3964 0
-28 -52 -167 -200 -226 -292 -312 -334 -422 -426 -446 -538 -558 -623 -632 -668 -747 -828 -848 -863 -879 -965 -979 -1016 -1088 -1111 -1139 -1144 -1176 -1231 -1266 -1319 -1333 -1457 -1474 -1509 -1549 -1737 -1758 -1774 -1799 -1893 -1999 -2000 -2018 -2019 -2084 -2118 -2136 -2177 -2214 -2256 -2387 -2415 -2555 -2586 -2642 -2767 -2806 -2811 -2822 -2897 -2952 -2994 -3050 -3895 0
-28 -52 -200 -226 -292 -312 -334 -406 -422 -426 -446 -538 -558 -623 -632 -668 -747 -828 -848 -863 -879 -965 -979 -1016 -1088 -1111 -1139 -1144 -1176 -1231 -1266 -1319 -1333 -1457 -1474 -1509 -1549 -1737 -1758 -1774 -1893 -2084 -2118 -2136 -2177 -2214 -2256 -2387 -2415 -2555 -2586 -2614 -2616 -2642 -2767 -2806 -2811 -2822 -2897 -2952 -2994 -3050 -3895 0
-200 -226 -292 -308 -312 -334 -422 -426 -476 -623 -747 -1088 -1111 -1150 -1176 -1231 -1333 -1711 -1893 -2259 -2276 -2410 -2513 -2674 0
-226 -292 -312 -334 -422 -426 -538 -623 -747 -774 -879 -934 -1088 -1111 -1150 -1176 -1231 -1266 -1333 -1737 -1774 -2066 -2259 -2410 -2674 -2980 0
-747 -1088 -1111 -1139 -1150 -1176 -1231 -1236 -1293 -1295 -1306 -2066 -2276 -2410 -2513 -2674 -2980 0
-584 -747 -1088 -1111 -1139 -1150 -1176 -1231 -1236 -1293 -1306 -1333 -2066 -2410 -2980 0
-84 -167 -747 -1088 -1176 -1231 -1333 -2030 -2276 -2410 -3022 0
-84 -205 -584 -623 -747 -1088 -1111 -1176 -1231 -1333 -3022 0
-412 -446 -668 -671 -747 -1088 -1111 -1144 -1176 -1231 -1333 -1486 0
-412 -446 -668 -747 -1088 -1111 -1144 -1176 -1231 -1333 -1486 -2720 0
-84 -446 -668 -747 -1088 -1111 -1144 -1176 -1231 -1333 -1486 -2720 0
-84 -668 -747 -1088 -1111 -1144 -1176 -1231 -1333 -1670 -2513 -2720 0
-747 -1088 -1111 -1144 -1163 -1231 -1333 -1375 -2494 -2513 0
-747 -1088 -1111 -1144 -1176 -1231 -1333 -1375 -1838 -2494 0
-584 -623 -747 -1088 -1111 -1144 -1176 -1231 -1333 -1375 -1838 0
-747 -1088 -1111 -1144 -1176 -1231 -1333 -1375 -1670 0
-84 -334 -879 -1088 -1333 -1711 -1838 -1999 -2151 -2259 -2276 -2297 -2410 -2674 -2720 -2980 0
-84 -879 -1088 -1176 -1333 -1838 -2066 -2151 -2297 -2410 -2531 -2674 -2720 -2980 0
-84 -879 -925 -1088 -1144 -1176 -1333 -1486 -1838 -2030 -2297 -2410 -2531 -2674 -2720 0
-84 -412 -879 -1088 -1144 -1176 -1333 -1486 -1838 -2030 -2297 -2410 -2531 -2674 -2720 0
-226 -879 -1088 -1144 -1333 -1486 -1711 -1838 -2259 -2297 -2410 -2531 -2674 -2980 0
-84 -879 -1176 -1333 -1711 -1838 -2259 -2297 -2410 -2494 -2513 -2531 -2674 -2980 0
-446 -584 -668 -747 -1111 -1144 -1163 -1231 -1333 -1372 -1486 -1670 -1838 0
-200 -334 -412 -446 -476 -558 -623 -632 -668 -747 -1111 -1144 -1176 -1231 -1333 -1372 -1486 0
-200 -334 -406 -446 -476 -558 -623 -632 -668 -747 -1111 -1144 -1176 -1231 -1333 -1372 -1486 0
-167 -226 -334 -584 -632 -668 -774 -1176 -1333 -1375 -1711 -1838 -2066 -2151 -2276 -2297 -2410 -2494 -2513 0
-226 -446 -1144 -1176 -1231 -1333 -1375 -1486 -1711 -1838 -2297 -2302 0
-200 -226 -334 -632 -895 -1176 -1231 -1287 -1306 -1333 -1670 -1711 -1774 -1838 -2066 -2297 -2302 -2494 -2513 0
-747 -1106 -1163 -1231 -1333 -1372 -1486 -1838 -2259 -2297 -2494 0
-623 -747 -1111 -1150 -1176 -1231 -1333 -1375 -1486 -2297 0
-395 -747 -1111 -1144 -1163 -1220 -1333 -1372 -1486 -2494 -2513 0
-747 -1111 -1144 -1163 -1231 -1333 -1372 -1486 -2494 -2513 0
-747 -1111 -1144 -1176 -1231 -1333 -1372 -1486 -2494 -2513 0
-226 -312 -334 -668 -879 -1176 -1333 -1375 -1486 -1838 -2066 -2259 -2276 -2410 -2494 -2513 0
-226 -538 -668 -671 -879 -1176 -1333 -1375 -1486 -1838 -2494 -3022 0
-226 -538 -668 -879 -1176 -1333 -1375 -1486 -1838 -2494 -2720 -3022 0
-167 -226 -334 -412 -476 -584 -934 -1176 -1375 -1486 -1711 -1838 -2259 -2494 -2513 -2720 -2980 -3557 0
-412 -747 -1111 -1176 -1220 -1372 -1486 -1711 -1838 -2030 -2259 -2276 -2410 -2494 -2513 -2531 0
-84 -747 -1150 -1176 -1231 -1295 -1375 -1486 -1711 -1838 -2259 -2297 -2410 -2674 -2980 0
-84 -200 -226 -308 -334 -412 -538 -584 -747 -1176 -1231 -1375 -1486 -1711 -1838 -2000 -2259 -2410 -2513 -2531 -2980 0
-226 -334 -412 -584 -747 -1111 -1176 -1231 -1375 -1486 -1838 -2259 -2494 -2513 -2531 -2980 0
-226 -334 -422 -538 -584 -747 -1176 -1231 -1375 -1486 -1711 -1838 -2030 -2259 -2410 -2494 -2513 -2531 -2980 0
-84 -200 -226 -308 -334 -406 -422 -446 -538 -584 -1176 -1375 -1486 -1711 -1838 -2151 -2259 -2531 -2980 0
-84 -200 -294 -334 -584 -1143 -1295 -1375 -1486 -1711 -1838 -2259 -2410 -2494 -2531 -2720 -2980 0
-446 -584 -632 -895 -1150 -1295 -1375 -1486 -1670 -1838 -2259 -2531 -2720 0
-200 -226 -334 -632 -1088 -1150 -1176 -1231 -1375 -1486 -1711 -1838 -2297 -2494 -2513 -2531 0
-167 -226 -308 -334 -536 -632 -1088 -1144 -1176 -1375 -1486 -1774 -1838 -2000 -2030 -2066 -2276 -2297 -2302 -2410 -2513 0
-226 -308 -334 -538 -632 -1088 -1144 -1176 -1375 -1486 -1774 -1838 -2000 -2030 -2066 -2259 -2276 -2297 -2302 -2410 -2513 0
-167 -226 -334 -632 -879 -1088 -1144 -1176 -1486 -1838 -1999 -2000 -2276 -2297 -2302 -2410 -2513 0
-84 -167 -334 -879 -1176 -1486 -1838 -2276 -2297 -2302 -2410 -2494 -2513 0
-84 -334 -1176 -1486 -1838 -2066 -2276 -2297 -2302 -2410 -2494 -2513 0
